1000 100
109 479
229 245
412 164
163 258
433 116
296 265
218 60
434 454
241 228
408 32
66 266
295 413
186 493
63 241
353 238
165 128
41 112
304 208
387 253
472 175
340 500
314 90
383 275
392 443
58 353
184 445
374 151
448 306
459 308
18 29
337 252
188 260
182 413
135 402
25 401
137 210
410 8
393 87
356 375
495 384
206 181
178 124
457 335
259 420
469 79
24 174
281 186
374 145
320 473
460 67
461 91
331 119
264 10
181 409
307 455
274 448
219 59
482 47
493 241
193 124
421 156
42 492
450 452
141 96
19 402
10 416
448 116
418 285
197 154
140 26
393 354
428 152
315 6
283 131
482 19
103 290
166 388
315 223
66 462
119 390
232 405
408 253
48 63
469 100
390 438
334 63
460 82
321 466
369 363
152 30
459 491
166 179
258 373
330 406
314 480
103 271
225 189
392 71
229 463
305 24
